; script in floating point theory

(set-option :print-success true)
(set-logic QF_FP)

(declare-fun x () (_ FloatingPoint  5  11))
(declare-fun y () (_ FloatingPoint  5  11))
(declare-fun z () (_ FloatingPoint  5  11))
;(push)
(assert (fp.leq x y ))
(check-sat)
(get-model)
;(assert (fp.leq x (fp #b1 #b1011 #b1010)))
;(assert (fp.geq x (fp #b1 #b1011 #b1010)))
;(check-sat)
;(pop)
;(push)
;(assert (fp.leq x y))
;(assert (fp.leq y z))
;(assert (fp.leq x z))
;(check-sat)
;(get-model)
;(assert (fp.leq y x))
;(check-sat)
;(pop)
;(push)
;(assert (fp.eq x y))
;(assert (fp.eq x z))
;(assert (fp.eq y z))
;(check-sat)
;(get-model)
;(pop)
;(push)
;(assert (fp.eq x (fp.sqrt RNE x)))
;(assert (fp.eq x (fp.mul RNE x x)))
;(check-sat)
;(get-model)
